NAME: map6_180
TYPE: TSP
COMMENT: autogenerated using a wonderful map creator
DIMENSION: 210
EDGE_WEIGHT_TYPE: EUC_2D
NODE_COORD_SECTION
1 34.0 126.0
2 35.0 126.0
3 36.0 126.0
4 37.0 126.0
5 38.0 126.0
6 2.0 39.0
7 2.0 38.0
8 88.0 2.0
9 87.0 2.0
10 86.0 2.0
11 85.0 2.0
12 84.0 2.0
13 126.0 75.0
14 126.0 74.0
15 126.0 73.0
16 39.0 126.0
17 40.0 126.0
18 41.0 126.0
19 42.0 126.0
20 43.0 126.0
21 2.0 37.0
22 2.0 36.0
23 2.0 35.0
24 83.0 2.0
25 82.0 2.0
26 81.0 2.0
27 80.0 2.0
28 79.0 2.0
29 126.0 72.0
30 126.0 71.0
31 34.0 127.0
32 35.0 127.0
33 36.0 127.0
34 37.0 127.0
35 38.0 127.0
36 1.0 39.0
37 1.0 38.0
38 88.0 1.0
39 87.0 1.0
40 86.0 1.0
41 85.0 1.0
42 84.0 1.0
43 127.0 75.0
44 127.0 74.0
45 127.0 73.0
46 39.0 127.0
47 40.0 127.0
48 41.0 127.0
49 42.0 127.0
50 43.0 127.0
51 1.0 37.0
52 1.0 36.0
53 1.0 35.0
54 83.0 1.0
55 82.0 1.0
56 81.0 1.0
57 80.0 1.0
58 79.0 1.0
59 127.0 72.0
60 127.0 71.0
61 18.0 17.0
62 67.0 123.0
63 41.0 104.0
64 116.0 70.0
65 19.0 64.0
66 46.0 48.0
67 53.0 96.0
68 54.0 31.0
69 9.0 127.0
70 28.0 21.0
71 73.0 53.0
72 41.0 88.0
73 29.0 68.0
74 49.0 80.0
75 84.0 77.0
76 95.0 22.0
77 15.0 32.0
78 108.0 105.0
79 34.0 67.0
80 37.0 8.0
81 65.0 54.0
82 116.0 72.0
83 8.0 66.0
84 119.0 34.0
85 76.0 63.0
86 28.0 23.0
87 60.0 76.0
88 121.0 126.0
89 57.0 68.0
90 37.0 99.0
91 95.0 15.0
92 101.0 92.0
93 16.0 88.0
94 30.0 4.0
95 85.0 123.0
96 83.0 71.0
97 103.0 49.0
98 38.0 48.0
99 100.0 96.0
100 51.0 20.0
101 69.0 35.0
102 112.0 15.0
103 3.0 108.0
104 110.0 109.0
105 30.0 98.0
106 37.0 3.0
107 122.0 37.0
108 11.0 48.0
109 2.0 45.0
110 20.0 35.0
111 86.0 90.0
112 31.0 99.0
113 60.0 25.0
114 10.0 15.0
115 43.0 82.0
116 62.0 117.0
117 16.0 10.0
118 50.0 106.0
119 74.0 36.0
120 90.0 96.0
121 30.0 54.0
122 8.0 63.0
123 61.0 17.0
124 4.0 84.0
125 84.0 104.0
126 86.0 101.0
127 36.0 91.0
128 53.0 107.0
129 126.0 36.0
130 72.0 74.0
131 39.0 71.0
132 54.0 5.0
133 7.0 82.0
134 83.0 50.0
135 49.0 27.0
136 57.0 104.0
137 85.0 120.0
138 94.0 68.0
139 9.0 9.0
140 15.0 107.0
141 6.0 49.0
142 59.0 31.0
143 61.0 28.0
144 50.0 92.0
145 39.0 55.0
146 28.0 34.0
147 61.0 101.0
148 18.0 11.0
149 42.0 42.0
150 11.0 91.0
151 22.0 2.0
152 120.0 7.0
153 66.0 91.0
154 76.0 101.0
155 125.0 122.0
156 51.0 47.0
157 3.0 126.0
158 112.0 97.0
159 121.0 54.0
160 78.0 28.0
161 86.0 96.0
162 80.0 34.0
163 26.0 118.0
164 98.0 79.0
165 48.0 60.0
166 122.0 9.0
167 72.0 60.0
168 99.0 23.0
169 22.0 114.0
170 30.0 42.0
171 86.0 62.0
172 39.0 20.0
173 94.0 109.0
174 77.0 123.0
175 100.0 6.0
176 122.0 45.0
177 20.0 89.0
178 52.0 57.0
179 38.0 104.0
180 50.0 69.0
181 95.0 37.0
182 32.0 63.0
183 42.0 65.0
184 58.0 91.0
185 53.0 58.0
186 60.0 36.0
187 109.0 57.0
188 11.0 95.0
189 123.0 28.0
190 67.0 60.0
191 26.0 104.0
192 73.0 36.0
193 1.0 4.0
194 7.0 54.0
195 45.0 38.0
196 47.0 35.0
197 96.0 86.0
198 2.0 12.0
199 73.0 63.0
200 51.0 26.0
201 76.0 25.0
202 20.0 2.0
203 28.0 104.0
204 98.0 31.0
205 21.0 74.0
206 9.0 54.0
207 17.0 15.0
208 107.0 15.0
209 37.0 27.0
210 120.0 52.0
211 32.0 24.0
212 14.0 107.0
213 66.0 90.0
214 112.0 87.0
215 3.0 116.0
216 63.0 48.0
217 82.0 116.0
218 91.0 30.0
219 28.0 35.0
220 103.0 123.0
221 40.0 64.0
222 120.0 118.0
223 100.0 115.0
224 111.0 60.0
225 60.0 51.0
226 35.0 95.0
227 58.0 8.0
228 43.0 108.0
229 126.0 5.0
230 21.0 87.0
231 107.0 120.0
232 37.0 13.0
233 33.0 61.0
234 44.0 6.0
235 93.0 75.0
236 101.0 67.0
237 68.0 64.0
238 69.0 38.0
239 109.0 1.0
240 124.0 102.0
START_DEPOT_SECTION
1
2
3
4
5
6
7
8
9
10
11
12
13
14
15
16
17
18
19
20
21
22
23
24
25
26
27
28
29
30
-1
END_DEPOT_SECTION
31
32
33
34
35
36
37
38
39
40
41
42
43
44
45
46
47
48
49
50
51
52
53
54
55
56
57
58
59
60
-1
EOF
